problems/csplib-prob015/SchursLemma-models/noch/O2/lingeling/model_1_3-3-10-solution000001.eprime-solution
language ESSENCE' 1.0

letting boxes_PartitionAsSet_ExplicitR5_ExplicitVarSizeWithMarker_Marker be [2, 3, 5; int(1..3)]
letting boxes_PartitionAsSet_ExplicitR5_ExplicitVarSizeWithMarker_Values be
        [[5, 7, 1, 1, 1, 1, 1, 1, 1, 1; int(1..10)], [1, 2, 6, 1, 1, 1, 1, 1, 1, 1; int(1..10)],
         [3, 4, 8, 9, 10, 1, 1, 1, 1, 1; int(1..10)]; int(1..3)]
