problems/csplib-prob015/SchursLemma-models/noch/O2/lingeling/model_1_3-3-10-solution000001.solution
language Essence 1.3

letting boxes be partition({1, 2, 6}, {3, 4, 8, 9, 10}, {5, 7})
